StringID	Type	x	y	Delivery	Pickup	ReadyTime	DueDate	ServiceTime
D0	d	35.0	35.0	0.0	0.0	0.0	230.0	0.0
S0	f	35.0	35.0	0.0	0.0	0.0	230.0	0.0
S3	f	48.0	60.0	0.0	0.0	0.0	230.0	0.0
S9	f	15.0	42.0	0.0	0.0	0.0	230.0	0.0
C71	c	57.0	68.0	12.573529411764707	2.4264705882352935	0.0	180.0	10.0
C1	c	41.0	49.0	8.36734693877551	1.6326530612244898	36.0	46.0	10.0
C5	c	15.0	30.0	13.0	13.0	0.0	199.0	10.0
C87	c	28.0	18.0	16.714285714285715	9.285714285714285	166.0	176.0	10.0
C99	c	20.0	26.0	6.923076923076923	2.0769230769230766	0.0	202.0	10.0

Q Vehicle fuel tank capacity /60.63/
C Vehicle load capacity /200.0/
r fuel consumption rate /1.0/
g inverse refueling rate /0.49/
v average Velocity /1.0/
